c defined variables: 4 9 13 18 22 27 31 35 36 37 38 42 46 51 55 59 64 68 72 73 74 78 82 86 87 88 89 93 97 101 105 109 113 114 118 119 120 124 128 132 133 134 138 142 146 147 148 149 153 157 161 162 163 164 168 172 173 174 178 182 186 187 188 192 196 197 198 202 206 207 208 212 216 220 224 228 232 236 240 241 242 243 247 251 255 259 263 272 273 274 278 282 286 287 288 289 293 297 301 305 309 313 314 318 319 320 324 328 332 333 334 338 342 346 347 348 349 353 357 361 362 363 364 368 372 373 374 378 382 386 390 394 405 410 416 417 420 421 423 424 425 426 429 430 431 432 435 436 437 438 441 442 446 449 450 453 454 455 456 457 458 461 
p cnf 1524 1708
a 360 356 385 371 409 389 403 393 400 397 58 62 77 67 81 54 49 92 34 96 413 304 327 271 262 266 277 337 300 341 285 21 25 45 16 41 30 12 1 6 377 367 323 312 308 317 331 345 381 352 223 250 219 205 215 211 201 185 195 191 50 7 26 2 3 17 63 8 227 231 246 235 254 292 239 296 281 258 123 104 127 137 100 141 85 71 108 112 152 177 167 156 117 131 145 181 160 171 0
e 5 10 11 14 15 19 20 23 24 28 29 32 33 39 40 43 44 47 48 52 53 56 57 60 61 65 66 69 70 75 76 79 80 83 84 90 91 94 95 98 99 102 103 106 107 110 111 115 116 121 122 125 126 129 130 135 136 139 140 143 144 150 151 154 155 158 159 165 166 169 170 175 176 179 180 183 184 189 190 193 194 199 200 203 204 209 210 213 214 217 218 221 222 225 226 229 230 233 234 237 238 244 245 248 249 252 253 256 257 260 261 264 265 268 269 270 275 276 279 280 283 284 290 291 294 295 298 299 302 303 306 307 310 311 315 316 321 322 325 326 329 330 335 336 339 340 343 344 350 351 354 355 358 359 365 366 369 370 375 376 379 380 383 384 387 388 391 392 395 396 398 399 401 402 406 407 408 411 412 415 418 419 422 427 428 433 434 439 440 443 444 445 447 448 451 452 459 460 4 9 13 18 22 27 31 35 36 37 38 42 46 51 55 59 64 68 72 73 74 78 82 86 87 88 89 93 97 101 105 109 113 114 118 119 120 124 128 132 133 134 138 142 146 147 148 149 153 157 161 162 163 164 168 172 173 174 178 182 186 187 188 192 196 197 198 202 206 207 208 212 216 220 224 228 232 236 240 241 242 243 247 251 255 259 263 272 273 274 278 282 286 287 288 289 293 297 301 305 309 313 314 318 319 320 324 328 332 333 334 338 342 346 347 348 349 353 357 361 362 363 364 368 372 373 374 378 382 386 390 394 405 410 416 417 420 421 423 424 425 426 429 430 431 432 435 436 437 438 441 442 446 449 450 453 454 455 456 457 458 461 1363 1364 1365 1366 1367 1368 1369 1370 1371 1372 1373 1374 1375 1376 1377 1378 1379 1380 1381 1382 1383 1384 1385 1386 1387 1388 1389 1390 1391 1392 1393 1394 1395 1396 1397 1398 1399 1400 1401 1402 1403 1404 1405 1406 1407 1408 1409 1410 1411 1412 1413 1414 1415 1416 1417 1418 1419 1420 1421 1422 1423 1424 1425 1426 1427 1428 1429 1430 1431 1432 1433 1434 1435 1436 1437 1438 1439 1440 1441 1442 1443 1444 1445 1446 1447 1448 1449 1450 1451 1452 1453 1454 1455 1456 1457 1458 1459 1460 1461 1462 1463 1464 1465 1466 1467 1468 1469 1470 1471 1472 1473 1474 1475 1476 1477 1478 1479 1480 1481 1482 1483 1484 1485 1486 1487 1488 1489 1490 1491 1492 1493 1494 1495 1496 1497 1498 1499 1500 1501 1502 1503 1504 1505 1506 1507 1508 1509 1510 1511 1512 1513 1514 1515 1516 1517 1518 1519 1520 1521 1522 1523 1524 0
d 267 26 3 0
d 404 400 397 0
d 414 385 389 0
1364 -4 0
-1364 4 0
1365 -9 0
-1365 9 0
-1368 -13 0
1368 13 0
1369 -18 0
-1369 18 0
1370 -22 0
-1370 22 0
1371 -27 0
-1371 27 0
-1374 -31 0
1374 31 0
-1363 -35 0
1363 35 0
-1363 -36 0
1363 36 0
1366 -37 0
-1366 37 0
-1375 -38 0
1375 38 0
-1378 -42 0
1378 42 0
-1381 -46 0
1381 46 0
1382 -51 0
-1382 51 0
1383 -55 0
-1383 55 0
1384 -59 0
-1384 59 0
1385 -64 0
-1385 64 0
-1388 -68 0
1388 68 0
1376 -72 0
-1376 72 0
1372 -73 0
-1372 73 0
-1389 -74 0
1389 74 0
-1392 -78 0
1392 78 0
-1395 -82 0
1395 82 0
-1363 -86 0
1363 86 0
-1363 -87 0
1363 87 0
1379 -88 0
-1379 88 0
1396 -89 0
-1396 89 0
-1399 -93 0
1399 93 0
-1402 -97 0
1402 97 0
1403 -101 0
-1403 101 0
1404 -105 0
-1404 105 0
1405 -109 0
-1405 109 0
-1363 -113 0
1363 113 0
1406 -114 0
-1406 114 0
1390 -118 0
-1390 118 0
1386 -119 0
-1386 119 0
-1407 -120 0
1407 120 0
-1410 -124 0
1410 124 0
-1413 -128 0
1413 128 0
1397 -132 0
-1397 132 0
1393 -133 0
-1393 133 0
-1414 -134 0
1414 134 0
-1417 -138 0
1417 138 0
-1420 -142 0
1420 142 0
-1363 -146 0
1363 146 0
-1363 -147 0
1363 147 0
1400 -148 0
-1400 148 0
1421 -149 0
-1421 149 0
1422 -153 0
-1422 153 0
1423 -157 0
-1423 157 0
1408 -161 0
-1408 161 0
-1363 -162 0
1363 162 0
-1363 -163 0
1363 163 0
1424 -164 0
-1424 164 0
-1427 -168 0
1427 168 0
1415 -172 0
-1415 172 0
1411 -173 0
-1411 173 0
-1428 -174 0
1428 174 0
-1431 -178 0
1431 178 0
-1434 -182 0
1434 182 0
1435 -186 0
-1435 186 0
1418 -187 0
-1418 187 0
-1436 -188 0
1436 188 0
1437 -192 0
-1437 192 0
1429 -196 0
-1429 196 0
1425 -197 0
-1425 197 0
-1438 -198 0
1438 198 0
-1441 -202 0
1441 202 0
1442 -206 0
-1442 206 0
1432 -207 0
-1432 207 0
-1443 -208 0
1443 208 0
1364 -212 0
-1364 212 0
1365 -216 0
-1365 216 0
-1446 -220 0
1446 220 0
1369 -224 0
-1369 224 0
1370 -228 0
-1370 228 0
1371 -232 0
-1371 232 0
-1449 -236 0
1449 236 0
-1363 -240 0
1363 240 0
-1363 -241 0
1363 241 0
1444 -242 0
-1444 242 0
1450 -243 0
-1450 243 0
-1453 -247 0
1453 247 0
-1456 -251 0
1456 251 0
1382 -255 0
-1382 255 0
1383 -259 0
-1383 259 0
1385 -263 0
-1385 263 0
1451 -272 0
-1451 272 0
1447 -273 0
-1447 273 0
-1457 -274 0
1457 274 0
-1460 -278 0
1460 278 0
-1463 -282 0
1463 282 0
-1363 -286 0
1363 286 0
-1363 -287 0
1363 287 0
1454 -288 0
-1454 288 0
1464 -289 0
-1464 289 0
-1467 -293 0
1467 293 0
-1470 -297 0
1470 297 0
1403 -301 0
-1403 301 0
1404 -305 0
-1404 305 0
1405 -309 0
-1405 309 0
-1363 -313 0
1363 313 0
1471 -314 0
-1471 314 0
1458 -318 0
-1458 318 0
1472 -319 0
-1472 319 0
-1473 -320 0
1473 320 0
-1476 -324 0
1476 324 0
-1479 -328 0
1479 328 0
1465 -332 0
-1465 332 0
1461 -333 0
-1461 333 0
-1480 -334 0
1480 334 0
-1483 -338 0
1483 338 0
-1486 -342 0
1486 342 0
-1363 -346 0
1363 346 0
-1363 -347 0
1363 347 0
1468 -348 0
-1468 348 0
1487 -349 0
-1487 349 0
1422 -353 0
-1422 353 0
1423 -357 0
-1423 357 0
1474 -361 0
-1474 361 0
-1363 -362 0
1363 362 0
-1363 -363 0
1363 363 0
1488 -364 0
-1488 364 0
-1491 -368 0
1491 368 0
1481 -372 0
-1481 372 0
1477 -373 0
-1477 373 0
-1492 -374 0
1492 374 0
1495 -378 0
-1495 378 0
-1498 -382 0
1498 382 0
1499 -386 0
-1499 386 0
1484 -390 0
-1484 390 0
1437 -394 0
-1437 394 0
1489 -405 0
-1489 405 0
-1502 -410 0
1502 410 0
1496 -416 0
-1496 416 0
-1503 -417 0
1503 417 0
1504 -420 0
-1504 420 0
1504 -421 0
-1504 421 0
-1363 -423 0
1363 423 0
1505 -424 0
-1505 424 0
-1363 -425 0
1363 425 0
1506 -426 0
-1506 426 0
-1363 -429 0
1363 429 0
1507 -430 0
-1507 430 0
-1363 -431 0
1363 431 0
1508 -432 0
-1508 432 0
-1363 -435 0
1363 435 0
1509 -436 0
-1509 436 0
-1363 -437 0
1363 437 0
1510 -438 0
-1510 438 0
-1512 -441 0
1512 441 0
-1514 -442 0
1514 442 0
-1516 -446 0
1516 446 0
-1519 -449 0
1519 449 0
-1522 -450 0
1522 450 0
1517 -453 0
-1517 453 0
1500 -454 0
-1500 454 0
-1523 -455 0
1523 455 0
1520 -456 0
-1520 456 0
1439 -457 0
-1439 457 0
-1524 -458 0
1524 458 0
1363 -461 0
-1363 461 0
461 0
-461 419 460 0
-419 412 -418 0
-412 408 -411 0
-408 402 -407 0
-402 399 -401 0
-399 396 -398 0
-396 392 -395 0
-392 388 -391 0
-388 384 -387 0
-384 380 -383 0
-380 376 -379 0
-376 370 -375 0
-370 366 -369 0
-366 359 -365 0
-359 355 -358 0
-355 351 -354 0
-351 344 -350 0
-344 340 -343 0
-340 336 -339 0
-336 330 -335 0
-330 326 -329 0
-326 322 -325 0
-322 316 -321 0
-316 311 -315 0
-311 307 -310 0
-307 303 -306 0
-303 299 -302 0
-299 295 -298 0
-295 291 -294 0
-291 284 -290 0
-284 280 -283 0
-280 276 -279 0
-276 270 -275 0
-270 265 -269 0
-265 261 -264 0
-261 257 -260 0
-257 253 -256 0
-253 249 -252 0
-249 245 -248 0
-245 238 -244 0
-238 234 -237 0
-234 230 -233 0
-230 226 -229 0
-226 222 -225 0
-222 218 -221 0
-218 214 -217 0
-214 210 -213 0
-210 204 -209 0
-204 200 -203 0
-200 194 -199 0
-194 190 -193 0
-190 184 -189 0
-184 180 -183 0
-180 176 -179 0
-176 170 -175 0
-170 166 -169 0
-166 159 -165 0
-159 155 -158 0
-155 151 -154 0
-151 144 -150 0
-144 140 -143 0
-140 136 -139 0
-136 130 -135 0
-130 126 -129 0
-126 122 -125 0
-122 116 -121 0
-116 111 -115 0
-111 107 -110 0
-107 103 -106 0
-103 99 -102 0
-99 95 -98 0
-95 91 -94 0
-91 84 -90 0
-84 80 -83 0
-80 76 -79 0
-76 70 -75 0
-70 66 -69 0
-66 61 -65 0
-61 57 -60 0
-57 53 -56 0
-53 48 -52 0
-48 44 -47 0
-44 40 -43 0
-40 33 -39 0
-33 29 -32 0
-29 24 -28 0
-24 20 -23 0
-20 15 -19 0
-15 11 -14 0
-11 -5 -10 0
1 4 5 0
-1 -4 5 0
-2 -3 4 0
-4 2 0
-4 3 0
6 9 10 0
-6 -9 10 0
-7 -8 9 0
-9 7 0
-9 8 0
12 -13 14 0
-12 13 14 0
-13 -1 6 0
-13 1 -6 0
1 6 13 0
-1 -6 13 0
16 18 19 0
-16 -18 19 0
-2 -17 18 0
-18 2 0
-18 17 0
21 22 23 0
-21 -22 23 0
-7 -3 22 0
-22 7 0
-22 3 0
25 27 28 0
-25 -27 28 0
-26 -8 27 0
-27 26 0
-27 8 0
30 -31 32 0
-30 31 32 0
-31 -21 25 0
-31 21 -25 0
21 25 31 0
-21 -25 31 0
34 38 39 0
-34 -38 39 0
-36 37 38 0
36 -37 38 0
-36 -37 38 0
-12 -35 36 0
-2 2 35 0
-1 -6 37 0
-38 36 37 0
-36 12 0
-36 35 0
-35 2 0
-35 -2 0
-37 1 0
-37 6 0
41 -42 43 0
-41 42 43 0
-42 -30 34 0
-42 30 -34 0
30 34 42 0
-30 -34 42 0
45 -46 47 0
-45 46 47 0
-46 -16 41 0
-46 16 -41 0
16 41 46 0
-16 -41 46 0
49 51 52 0
-49 -51 52 0
-2 -50 51 0
-51 2 0
-51 50 0
54 55 56 0
-54 -55 56 0
-7 -17 55 0
-55 7 0
-55 17 0
58 59 60 0
-58 -59 60 0
-26 -3 59 0
-59 26 0
-59 3 0
62 64 65 0
-62 -64 65 0
-63 -8 64 0
-64 63 0
-64 8 0
67 -68 69 0
-67 68 69 0
-68 -58 62 0
-68 58 -62 0
58 62 68 0
-58 -62 68 0
71 74 75 0
-71 -74 75 0
-72 73 74 0
72 -73 74 0
-72 -73 74 0
-30 -34 72 0
-21 -25 73 0
-74 72 73 0
-72 30 0
-72 34 0
-73 21 0
-73 25 0
77 -78 79 0
-77 78 79 0
-78 -67 71 0
-78 67 -71 0
67 71 78 0
-67 -71 78 0
81 -82 83 0
-81 82 83 0
-82 -54 77 0
-82 54 -77 0
54 77 82 0
-54 -77 82 0
85 89 90 0
-85 -89 90 0
-87 88 89 0
87 -88 89 0
-87 -88 89 0
-45 -86 87 0
-2 2 86 0
-16 -41 88 0
-89 87 88 0
-87 45 0
-87 86 0
-86 2 0
-86 -2 0
-88 16 0
-88 41 0
92 -93 94 0
-92 93 94 0
-93 -81 85 0
-93 81 -85 0
81 85 93 0
-81 -85 93 0
96 -97 98 0
-96 97 98 0
-97 -49 92 0
-97 49 -92 0
49 92 97 0
-49 -92 97 0
100 101 102 0
-100 -101 102 0
-7 -50 101 0
-101 7 0
-101 50 0
104 105 106 0
-104 -105 106 0
-26 -17 105 0
-105 26 0
-105 17 0
108 109 110 0
-108 -109 110 0
-63 -3 109 0
-109 63 0
-109 3 0
112 -114 115 0
-112 114 115 0
-114 -108 113 0
-114 108 -113 0
-113 2 0
-113 -2 0
-2 2 113 0
108 113 114 0
-108 -113 114 0
-2 2 113 0
-113 2 0
-113 -2 0
117 120 121 0
-117 -120 121 0
-118 119 120 0
118 -119 120 0
-118 -119 120 0
-67 -71 118 0
-58 -62 119 0
-120 118 119 0
-118 67 0
-118 71 0
-119 58 0
-119 62 0
123 -124 125 0
-123 124 125 0
-124 -112 117 0
-124 112 -117 0
112 117 124 0
-112 -117 124 0
127 -128 129 0
-127 128 129 0
-128 -104 123 0
-128 104 -123 0
104 123 128 0
-104 -123 128 0
131 134 135 0
-131 -134 135 0
-132 133 134 0
132 -133 134 0
-132 -133 134 0
-81 -85 132 0
-54 -77 133 0
-134 132 133 0
-132 81 0
-132 85 0
-133 54 0
-133 77 0
137 -138 139 0
-137 138 139 0
-138 -127 131 0
-138 127 -131 0
127 131 138 0
-127 -131 138 0
141 -142 143 0
-141 142 143 0
-142 -100 137 0
-142 100 -137 0
100 137 142 0
-100 -137 142 0
145 149 150 0
-145 -149 150 0
-147 148 149 0
147 -148 149 0
-147 -148 149 0
-96 -146 147 0
-2 2 146 0
-49 -92 148 0
-149 147 148 0
-147 96 0
-147 146 0
-146 2 0
-146 -2 0
-148 49 0
-148 92 0
152 153 154 0
-152 -153 154 0
-26 -50 153 0
-153 26 0
-153 50 0
156 157 158 0
-156 -157 158 0
-63 -17 157 0
-157 63 0
-157 17 0
160 164 165 0
-160 -164 165 0
-161 163 164 0
161 -163 164 0
-161 -163 164 0
-112 -117 161 0
-108 -162 163 0
-2 2 162 0
-164 161 163 0
-161 112 0
-161 117 0
-163 108 0
-163 162 0
-162 2 0
-162 -2 0
167 -168 169 0
-167 168 169 0
-168 -156 160 0
-168 156 -160 0
156 160 168 0
-156 -160 168 0
171 174 175 0
-171 -174 175 0
-172 173 174 0
172 -173 174 0
-172 -173 174 0
-127 -131 172 0
-104 -123 173 0
-174 172 173 0
-172 127 0
-172 131 0
-173 104 0
-173 123 0
177 -178 179 0
-177 178 179 0
-178 -167 171 0
-178 167 -171 0
167 171 178 0
-167 -171 178 0
181 -182 183 0
-181 182 183 0
-182 -152 177 0
-182 152 -177 0
152 177 182 0
-152 -177 182 0
185 188 189 0
-185 -188 189 0
-186 187 188 0
186 -187 188 0
-186 -187 188 0
-141 -145 186 0
-100 -137 187 0
-188 186 187 0
-186 141 0
-186 145 0
-187 100 0
-187 137 0
191 192 193 0
-191 -192 193 0
-63 -50 192 0
-192 63 0
-192 50 0
195 198 199 0
-195 -198 199 0
-196 197 198 0
196 -197 198 0
-196 -197 198 0
-167 -171 196 0
-156 -160 197 0
-198 196 197 0
-196 167 0
-196 171 0
-197 156 0
-197 160 0
201 -202 203 0
-201 202 203 0
-202 -191 195 0
-202 191 -195 0
191 195 202 0
-191 -195 202 0
205 208 209 0
-205 -208 209 0
-206 207 208 0
206 -207 208 0
-206 -207 208 0
-181 -185 206 0
-152 -177 207 0
-208 206 207 0
-206 181 0
-206 185 0
-207 152 0
-207 177 0
211 212 213 0
-211 -212 213 0
-2 -3 212 0
-212 2 0
-212 3 0
215 216 217 0
-215 -216 217 0
-7 -8 216 0
-216 7 0
-216 8 0
219 -220 221 0
-219 220 221 0
-220 -211 215 0
-220 211 -215 0
211 215 220 0
-211 -215 220 0
223 224 225 0
-223 -224 225 0
-2 -17 224 0
-224 2 0
-224 17 0
227 228 229 0
-227 -228 229 0
-7 -3 228 0
-228 7 0
-228 3 0
231 232 233 0
-231 -232 233 0
-26 -8 232 0
-232 26 0
-232 8 0
235 -236 237 0
-235 236 237 0
-236 -227 231 0
-236 227 -231 0
227 231 236 0
-227 -231 236 0
239 243 244 0
-239 -243 244 0
-241 242 243 0
241 -242 243 0
-241 -242 243 0
-219 -240 241 0
-2 2 240 0
-211 -215 242 0
-243 241 242 0
-241 219 0
-241 240 0
-240 2 0
-240 -2 0
-242 211 0
-242 215 0
246 -247 248 0
-246 247 248 0
-247 -235 239 0
-247 235 -239 0
235 239 247 0
-235 -239 247 0
250 -251 252 0
-250 251 252 0
-251 -223 246 0
-251 223 -246 0
223 246 251 0
-223 -246 251 0
254 255 256 0
-254 -255 256 0
-2 -50 255 0
-255 2 0
-255 50 0
258 259 260 0
-258 -259 260 0
-7 -17 259 0
-259 7 0
-259 17 0
262 263 264 0
-262 -263 264 0
-63 -8 263 0
-263 63 0
-263 8 0
266 -268 269 0
-266 268 269 0
-268 -267 262 0
-268 267 -262 0
267 262 268 0
-267 -262 268 0
271 274 275 0
-271 -274 275 0
-272 273 274 0
272 -273 274 0
-272 -273 274 0
-235 -239 272 0
-227 -231 273 0
-274 272 273 0
-272 235 0
-272 239 0
-273 227 0
-273 231 0
277 -278 279 0
-277 278 279 0
-278 -266 271 0
-278 266 -271 0
266 271 278 0
-266 -271 278 0
281 -282 283 0
-281 282 283 0
-282 -258 277 0
-282 258 -277 0
258 277 282 0
-258 -277 282 0
285 289 290 0
-285 -289 290 0
-287 288 289 0
287 -288 289 0
-287 -288 289 0
-250 -286 287 0
-2 2 286 0
-223 -246 288 0
-289 287 288 0
-287 250 0
-287 286 0
-286 2 0
-286 -2 0
-288 223 0
-288 246 0
292 -293 294 0
-292 293 294 0
-293 -281 285 0
-293 281 -285 0
281 285 293 0
-281 -285 293 0
296 -297 298 0
-296 297 298 0
-297 -254 292 0
-297 254 -292 0
254 292 297 0
-254 -292 297 0
300 301 302 0
-300 -301 302 0
-7 -50 301 0
-301 7 0
-301 50 0
304 305 306 0
-304 -305 306 0
-26 -17 305 0
-305 26 0
-305 17 0
308 309 310 0
-308 -309 310 0
-63 -3 309 0
-309 63 0
-309 3 0
312 -314 315 0
-312 314 315 0
-314 -308 313 0
-314 308 -313 0
-313 2 0
-313 -2 0
-2 2 313 0
308 313 314 0
-308 -313 314 0
-2 2 313 0
-313 2 0
-313 -2 0
317 320 321 0
-317 -320 321 0
-318 319 320 0
318 -319 320 0
-318 -319 320 0
-266 -271 318 0
-267 -262 319 0
-320 318 319 0
-318 266 0
-318 271 0
-319 267 0
-319 262 0
323 -324 325 0
-323 324 325 0
-324 -312 317 0
-324 312 -317 0
312 317 324 0
-312 -317 324 0
327 -328 329 0
-327 328 329 0
-328 -304 323 0
-328 304 -323 0
304 323 328 0
-304 -323 328 0
331 334 335 0
-331 -334 335 0
-332 333 334 0
332 -333 334 0
-332 -333 334 0
-281 -285 332 0
-258 -277 333 0
-334 332 333 0
-332 281 0
-332 285 0
-333 258 0
-333 277 0
337 -338 339 0
-337 338 339 0
-338 -327 331 0
-338 327 -331 0
327 331 338 0
-327 -331 338 0
341 -342 343 0
-341 342 343 0
-342 -300 337 0
-342 300 -337 0
300 337 342 0
-300 -337 342 0
345 349 350 0
-345 -349 350 0
-347 348 349 0
347 -348 349 0
-347 -348 349 0
-296 -346 347 0
-2 2 346 0
-254 -292 348 0
-349 347 348 0
-347 296 0
-347 346 0
-346 2 0
-346 -2 0
-348 254 0
-348 292 0
352 353 354 0
-352 -353 354 0
-26 -50 353 0
-353 26 0
-353 50 0
356 357 358 0
-356 -357 358 0
-63 -17 357 0
-357 63 0
-357 17 0
360 364 365 0
-360 -364 365 0
361 363 364 0
-361 -363 364 0
-312 -317 361 0
-308 -362 363 0
-2 2 362 0
-361 312 0
-361 317 0
-363 308 0
-363 362 0
-362 2 0
-362 -2 0
-364 -361 363 0
-364 361 -363 0
-361 312 0
-361 317 0
-363 308 0
-363 362 0
-362 2 0
-362 -2 0
-312 -317 361 0
-308 -362 363 0
-2 2 362 0
367 -368 369 0
-367 368 369 0
-368 -356 360 0
-368 356 -360 0
356 360 368 0
-356 -360 368 0
371 374 375 0
-371 -374 375 0
-372 373 374 0
372 -373 374 0
-372 -373 374 0
-327 -331 372 0
-304 -323 373 0
-374 372 373 0
-372 327 0
-372 331 0
-373 304 0
-373 323 0
377 -378 379 0
-377 378 379 0
-378 -367 371 0
-378 367 -371 0
367 371 378 0
-367 -371 378 0
381 -382 383 0
-381 382 383 0
-382 -352 377 0
-382 352 -377 0
352 377 382 0
-352 -377 382 0
385 386 387 0
-385 -386 387 0
-341 -345 386 0
-386 341 0
-386 345 0
389 390 391 0
-389 -390 391 0
-300 -337 390 0
-390 300 0
-390 337 0
393 394 395 0
-393 -394 395 0
-63 -50 394 0
-394 63 0
-394 50 0
397 367 398 0
-397 -367 398 0
400 371 401 0
-400 -371 401 0
403 406 407 0
-403 -406 407 0
-404 405 406 0
404 -405 406 0
-404 -405 406 0
-356 -360 405 0
-406 404 405 0
-405 356 0
-405 360 0
409 -410 411 0
-409 410 411 0
-410 -393 403 0
-410 393 -403 0
393 403 410 0
-393 -403 410 0
413 417 418 0
-413 -417 418 0
-415 416 417 0
415 -416 417 0
-415 -416 417 0
-381 -414 415 0
-352 -377 416 0
-417 415 416 0
-415 381 0
-415 414 0
-416 352 0
-416 377 0
-460 452 0
-460 459 0
-452 448 0
-452 451 0
-448 444 0
-448 447 0
-444 440 0
-444 443 0
-440 434 0
-440 439 0
-434 428 0
-434 433 0
-428 422 0
-428 427 0
-422 -420 421 0
-422 420 -421 0
-420 2 0
-420 8 0
-421 2 0
-421 8 0
-2 -8 420 0
-2 -8 421 0
-427 424 -426 0
-427 -424 426 0
219 423 424 0
-219 -423 424 0
-2 2 423 0
-423 2 0
-423 -2 0
12 425 426 0
-12 -425 426 0
-2 2 425 0
-425 2 0
-425 -2 0
-424 -219 423 0
-424 219 -423 0
-423 2 0
-423 -2 0
-2 2 423 0
-426 -12 425 0
-426 12 -425 0
-425 2 0
-425 -2 0
-2 2 425 0
-433 430 -432 0
-433 -430 432 0
250 429 430 0
-250 -429 430 0
-2 2 429 0
-429 2 0
-429 -2 0
45 431 432 0
-45 -431 432 0
-2 2 431 0
-431 2 0
-431 -2 0
-430 -250 429 0
-430 250 -429 0
-429 2 0
-429 -2 0
-2 2 429 0
-432 -45 431 0
-432 45 -431 0
-431 2 0
-431 -2 0
-2 2 431 0
-439 436 -438 0
-439 -436 438 0
296 435 436 0
-296 -435 436 0
-2 2 435 0
-435 2 0
-435 -2 0
96 437 438 0
-96 -437 438 0
-2 2 437 0
-437 2 0
-437 -2 0
-436 -296 435 0
-436 296 -435 0
-435 2 0
-435 -2 0
-2 2 435 0
-438 -96 437 0
-438 96 -437 0
-437 2 0
-437 -2 0
-2 2 437 0
-443 441 -442 0
-443 -441 442 0
341 345 441 0
-341 -345 441 0
141 145 442 0
-141 -145 442 0
-441 -341 345 0
-441 341 -345 0
-442 -141 145 0
-442 141 -145 0
-447 445 -446 0
-447 -445 446 0
381 414 445 0
-381 -414 445 0
181 185 446 0
-181 -185 446 0
-445 -381 414 0
-445 381 -414 0
-446 -181 185 0
-446 181 -185 0
-451 449 -450 0
-451 -449 450 0
409 413 449 0
-409 -413 449 0
201 205 450 0
-201 -205 450 0
-449 -409 413 0
-449 409 -413 0
-450 -201 205 0
-450 201 -205 0
-459 -455 458 0
-459 455 -458 0
-455 453 454 0
-453 409 0
-453 413 0
-454 393 0
-454 403 0
-458 456 457 0
-456 201 0
-456 205 0
-457 191 0
-457 195 0
-453 454 455 0
453 -454 455 0
-453 -454 455 0
-409 -413 453 0
-393 -403 454 0
-456 457 458 0
456 -457 458 0
-456 -457 458 0
-201 -205 456 0
-191 -195 457 0
1363 0
2 -1364 0
3 -1364 0
-2 -3 1364 0
7 -1365 0
8 -1365 0
-7 -8 1365 0
1 -1366 0
6 -1366 0
-1 -6 1366 0
-1 -1367 0
-6 -1367 0
1 6 1367 0
-1366 -1368 0
-1367 -1368 0
1366 1367 1368 0
2 -1369 0
17 -1369 0
-2 -17 1369 0
7 -1370 0
3 -1370 0
-7 -3 1370 0
26 -1371 0
8 -1371 0
-26 -8 1371 0
21 -1372 0
25 -1372 0
-21 -25 1372 0
-21 -1373 0
-25 -1373 0
21 25 1373 0
-1372 -1374 0
-1373 -1374 0
1372 1373 1374 0
-36 -1375 0
-37 -1375 0
36 37 1375 0
34 -1376 0
30 -1376 0
-34 -30 1376 0
-34 -1377 0
-30 -1377 0
34 30 1377 0
-1376 -1378 0
-1377 -1378 0
1376 1377 1378 0
16 -1379 0
41 -1379 0
-16 -41 1379 0
-16 -1380 0
-41 -1380 0
16 41 1380 0
-1379 -1381 0
-1380 -1381 0
1379 1380 1381 0
50 -1382 0
2 -1382 0
-50 -2 1382 0
7 -1383 0
17 -1383 0
-7 -17 1383 0
26 -1384 0
3 -1384 0
-26 -3 1384 0
63 -1385 0
8 -1385 0
-63 -8 1385 0
58 -1386 0
62 -1386 0
-58 -62 1386 0
-58 -1387 0
-62 -1387 0
58 62 1387 0
-1386 -1388 0
-1387 -1388 0
1386 1387 1388 0
-72 -1389 0
-73 -1389 0
72 73 1389 0
67 -1390 0
71 -1390 0
-67 -71 1390 0
-67 -1391 0
-71 -1391 0
67 71 1391 0
-1390 -1392 0
-1391 -1392 0
1390 1391 1392 0
77 -1393 0
54 -1393 0
-77 -54 1393 0
-77 -1394 0
-54 -1394 0
77 54 1394 0
-1393 -1395 0
-1394 -1395 0
1393 1394 1395 0
-87 -1396 0
88 -1396 0
87 -88 1396 0
81 -1397 0
85 -1397 0
-81 -85 1397 0
-81 -1398 0
-85 -1398 0
81 85 1398 0
-1397 -1399 0
-1398 -1399 0
1397 1398 1399 0
49 -1400 0
92 -1400 0
-49 -92 1400 0
-49 -1401 0
-92 -1401 0
49 92 1401 0
-1400 -1402 0
-1401 -1402 0
1400 1401 1402 0
50 -1403 0
7 -1403 0
-50 -7 1403 0
26 -1404 0
17 -1404 0
-26 -17 1404 0
3 -1405 0
63 -1405 0
-3 -63 1405 0
-108 -1406 0
-113 -1406 0
108 113 1406 0
-118 -1407 0
-119 -1407 0
118 119 1407 0
112 -1408 0
117 -1408 0
-112 -117 1408 0
-112 -1409 0
-117 -1409 0
112 117 1409 0
-1408 -1410 0
-1409 -1410 0
1408 1409 1410 0
123 -1411 0
104 -1411 0
-123 -104 1411 0
-123 -1412 0
-104 -1412 0
123 104 1412 0
-1411 -1413 0
-1412 -1413 0
1411 1412 1413 0
-132 -1414 0
-133 -1414 0
132 133 1414 0
127 -1415 0
131 -1415 0
-127 -131 1415 0
-127 -1416 0
-131 -1416 0
127 131 1416 0
-1415 -1417 0
-1416 -1417 0
1415 1416 1417 0
137 -1418 0
100 -1418 0
-137 -100 1418 0
-137 -1419 0
-100 -1419 0
137 100 1419 0
-1418 -1420 0
-1419 -1420 0
1418 1419 1420 0
-147 -1421 0
148 -1421 0
147 -148 1421 0
50 -1422 0
26 -1422 0
-50 -26 1422 0
17 -1423 0
63 -1423 0
-17 -63 1423 0
161 -1424 0
-163 -1424 0
-161 163 1424 0
156 -1425 0
160 -1425 0
-156 -160 1425 0
-156 -1426 0
-160 -1426 0
156 160 1426 0
-1425 -1427 0
-1426 -1427 0
1425 1426 1427 0
-172 -1428 0
-173 -1428 0
172 173 1428 0
167 -1429 0
171 -1429 0
-167 -171 1429 0
-167 -1430 0
-171 -1430 0
167 171 1430 0
-1429 -1431 0
-1430 -1431 0
1429 1430 1431 0
152 -1432 0
177 -1432 0
-152 -177 1432 0
-152 -1433 0
-177 -1433 0
152 177 1433 0
-1432 -1434 0
-1433 -1434 0
1432 1433 1434 0
141 -1435 0
145 -1435 0
-141 -145 1435 0
-186 -1436 0
-187 -1436 0
186 187 1436 0
50 -1437 0
63 -1437 0
-50 -63 1437 0
-196 -1438 0
-197 -1438 0
196 197 1438 0
195 -1439 0
191 -1439 0
-195 -191 1439 0
-195 -1440 0
-191 -1440 0
195 191 1440 0
-1439 -1441 0
-1440 -1441 0
1439 1440 1441 0
185 -1442 0
181 -1442 0
-185 -181 1442 0
-206 -1443 0
-207 -1443 0
206 207 1443 0
215 -1444 0
211 -1444 0
-215 -211 1444 0
-215 -1445 0
-211 -1445 0
215 211 1445 0
-1444 -1446 0
-1445 -1446 0
1444 1445 1446 0
227 -1447 0
231 -1447 0
-227 -231 1447 0
-227 -1448 0
-231 -1448 0
227 231 1448 0
-1447 -1449 0
-1448 -1449 0
1447 1448 1449 0
-241 -1450 0
242 -1450 0
241 -242 1450 0
235 -1451 0
239 -1451 0
-235 -239 1451 0
-235 -1452 0
-239 -1452 0
235 239 1452 0
-1451 -1453 0
-1452 -1453 0
1451 1452 1453 0
223 -1454 0
246 -1454 0
-223 -246 1454 0
-223 -1455 0
-246 -1455 0
223 246 1455 0
-1454 -1456 0
-1455 -1456 0
1454 1455 1456 0
-272 -1457 0
-273 -1457 0
272 273 1457 0
271 -1458 0
266 -1458 0
-271 -266 1458 0
-271 -1459 0
-266 -1459 0
271 266 1459 0
-1458 -1460 0
-1459 -1460 0
1458 1459 1460 0
277 -1461 0
258 -1461 0
-277 -258 1461 0
-277 -1462 0
-258 -1462 0
277 258 1462 0
-1461 -1463 0
-1462 -1463 0
1461 1462 1463 0
-287 -1464 0
288 -1464 0
287 -288 1464 0
285 -1465 0
281 -1465 0
-285 -281 1465 0
-285 -1466 0
-281 -1466 0
285 281 1466 0
-1465 -1467 0
-1466 -1467 0
1465 1466 1467 0
254 -1468 0
292 -1468 0
-254 -292 1468 0
-254 -1469 0
-292 -1469 0
254 292 1469 0
-1468 -1470 0
-1469 -1470 0
1468 1469 1470 0
-308 -1471 0
-313 -1471 0
308 313 1471 0
262 -1472 0
268 -1472 0
-262 -268 1472 0
-318 -1473 0
-319 -1473 0
318 319 1473 0
312 -1474 0
317 -1474 0
-312 -317 1474 0
-312 -1475 0
-317 -1475 0
312 317 1475 0
-1474 -1476 0
-1475 -1476 0
1474 1475 1476 0
304 -1477 0
323 -1477 0
-304 -323 1477 0
-304 -1478 0
-323 -1478 0
304 323 1478 0
-1477 -1479 0
-1478 -1479 0
1477 1478 1479 0
-332 -1480 0
-333 -1480 0
332 333 1480 0
327 -1481 0
331 -1481 0
-327 -331 1481 0
-327 -1482 0
-331 -1482 0
327 331 1482 0
-1481 -1483 0
-1482 -1483 0
1481 1482 1483 0
337 -1484 0
300 -1484 0
-337 -300 1484 0
-337 -1485 0
-300 -1485 0
337 300 1485 0
-1484 -1486 0
-1485 -1486 0
1484 1485 1486 0
-347 -1487 0
348 -1487 0
347 -348 1487 0
-361 -1488 0
-363 -1488 0
361 363 1488 0
360 -1489 0
356 -1489 0
-360 -356 1489 0
-360 -1490 0
-356 -1490 0
360 356 1490 0
-1489 -1491 0
-1490 -1491 0
1489 1490 1491 0
-372 -1492 0
-373 -1492 0
372 373 1492 0
371 -1493 0
-367 -1493 0
-371 367 1493 0
-371 -1494 0
367 -1494 0
371 -367 1494 0
-1493 -1495 0
-1494 -1495 0
1493 1494 1495 0
377 -1496 0
352 -1496 0
-377 -352 1496 0
-377 -1497 0
-352 -1497 0
377 352 1497 0
-1496 -1498 0
-1497 -1498 0
1496 1497 1498 0
341 -1499 0
345 -1499 0
-341 -345 1499 0
403 -1500 0
393 -1500 0
-403 -393 1500 0
-403 -1501 0
-393 -1501 0
403 393 1501 0
-1500 -1502 0
-1501 -1502 0
1500 1501 1502 0
-415 -1503 0
-416 -1503 0
415 416 1503 0
2 -1504 0
8 -1504 0
-2 -8 1504 0
-219 -1505 0
-423 -1505 0
219 423 1505 0
-12 -1506 0
-425 -1506 0
12 425 1506 0
-250 -1507 0
-429 -1507 0
250 429 1507 0
-45 -1508 0
-431 -1508 0
45 431 1508 0
-296 -1509 0
-435 -1509 0
296 435 1509 0
-96 -1510 0
-437 -1510 0
96 437 1510 0
-341 -1511 0
-345 -1511 0
341 345 1511 0
-1499 -1512 0
-1511 -1512 0
1499 1511 1512 0
-141 -1513 0
-145 -1513 0
141 145 1513 0
-1435 -1514 0
-1513 -1514 0
1435 1513 1514 0
-185 -1515 0
-181 -1515 0
185 181 1515 0
-1442 -1516 0
-1515 -1516 0
1442 1515 1516 0
409 -1517 0
413 -1517 0
-409 -413 1517 0
-409 -1518 0
-413 -1518 0
409 413 1518 0
-1517 -1519 0
-1518 -1519 0
1517 1518 1519 0
205 -1520 0
201 -1520 0
-205 -201 1520 0
-205 -1521 0
-201 -1521 0
205 201 1521 0
-1520 -1522 0
-1521 -1522 0
1520 1521 1522 0
-453 -1523 0
-454 -1523 0
453 454 1523 0
-456 -1524 0
-457 -1524 0
456 457 1524 0
